c CNF file corresponding to a (partial) station packing problem.
p cnf 3747 213
1 2 3 4 5 6 7 8 9 10 11 12 13 14 0
-1 -2 0
-1 -3 0
-1 -4 0
-1 -5 0
-1 -6 0
-1 -7 0
-1 -8 0
-1 -9 0
-1 -10 0
-1 -11 0
-1 -12 0
-1 -13 0
-1 -14 0
-2 -3 0
-2 -4 0
-2 -5 0
-2 -6 0
-2 -7 0
-2 -8 0
-2 -9 0
-2 -10 0
-2 -11 0
-2 -12 0
-2 -13 0
-2 -14 0
-3 -4 0
-3 -5 0
-3 -6 0
-3 -7 0
-3 -8 0
-3 -9 0
-3 -10 0
-3 -11 0
-3 -12 0
-3 -13 0
-3 -14 0
-4 -5 0
-4 -6 0
-4 -7 0
-4 -8 0
-4 -9 0
-4 -10 0
-4 -11 0
-4 -12 0
-4 -13 0
-4 -14 0
-5 -6 0
-5 -7 0
-5 -8 0
-5 -9 0
-5 -10 0
-5 -11 0
-5 -12 0
-5 -13 0
-5 -14 0
-6 -7 0
-6 -8 0
-6 -9 0
-6 -10 0
-6 -11 0
-6 -12 0
-6 -13 0
-6 -14 0
-7 -8 0
-7 -9 0
-7 -10 0
-7 -11 0
-7 -12 0
-7 -13 0
-7 -14 0
-8 -9 0
-8 -10 0
-8 -11 0
-8 -12 0
-8 -13 0
-8 -14 0
-9 -10 0
-9 -11 0
-9 -12 0
-9 -13 0
-9 -14 0
-10 -11 0
-10 -12 0
-10 -13 0
-10 -14 0
-11 -12 0
-11 -13 0
-11 -14 0
-12 -13 0
-12 -14 0
-13 -14 0
3732 3733 3734 3735 3736 3737 3738 3739 3740 3741 3742 3743 3744 3745 3746 3747 0
-3732 -3733 0
-3732 -3734 0
-3732 -3735 0
-3732 -3736 0
-3732 -3737 0
-3732 -3738 0
-3732 -3739 0
-3732 -3740 0
-3732 -3741 0
-3732 -3742 0
-3732 -3743 0
-3732 -3744 0
-3732 -3745 0
-3732 -3746 0
-3732 -3747 0
-3733 -3734 0
-3733 -3735 0
-3733 -3736 0
-3733 -3737 0
-3733 -3738 0
-3733 -3739 0
-3733 -3740 0
-3733 -3741 0
-3733 -3742 0
-3733 -3743 0
-3733 -3744 0
-3733 -3745 0
-3733 -3746 0
-3733 -3747 0
-3734 -3735 0
-3734 -3736 0
-3734 -3737 0
-3734 -3738 0
-3734 -3739 0
-3734 -3740 0
-3734 -3741 0
-3734 -3742 0
-3734 -3743 0
-3734 -3744 0
-3734 -3745 0
-3734 -3746 0
-3734 -3747 0
-3735 -3736 0
-3735 -3737 0
-3735 -3738 0
-3735 -3739 0
-3735 -3740 0
-3735 -3741 0
-3735 -3742 0
-3735 -3743 0
-3735 -3744 0
-3735 -3745 0
-3735 -3746 0
-3735 -3747 0
-3736 -3737 0
-3736 -3738 0
-3736 -3739 0
-3736 -3740 0
-3736 -3741 0
-3736 -3742 0
-3736 -3743 0
-3736 -3744 0
-3736 -3745 0
-3736 -3746 0
-3736 -3747 0
-3737 -3738 0
-3737 -3739 0
-3737 -3740 0
-3737 -3741 0
-3737 -3742 0
-3737 -3743 0
-3737 -3744 0
-3737 -3745 0
-3737 -3746 0
-3737 -3747 0
-3738 -3739 0
-3738 -3740 0
-3738 -3741 0
-3738 -3742 0
-3738 -3743 0
-3738 -3744 0
-3738 -3745 0
-3738 -3746 0
-3738 -3747 0
-3739 -3740 0
-3739 -3741 0
-3739 -3742 0
-3739 -3743 0
-3739 -3744 0
-3739 -3745 0
-3739 -3746 0
-3739 -3747 0
-3740 -3741 0
-3740 -3742 0
-3740 -3743 0
-3740 -3744 0
-3740 -3745 0
-3740 -3746 0
-3740 -3747 0
-3741 -3742 0
-3741 -3743 0
-3741 -3744 0
-3741 -3745 0
-3741 -3746 0
-3741 -3747 0
-3742 -3743 0
-3742 -3744 0
-3742 -3745 0
-3742 -3746 0
-3742 -3747 0
-3743 -3744 0
-3743 -3745 0
-3743 -3746 0
-3743 -3747 0
-3744 -3745 0
-3744 -3746 0
-3744 -3747 0
-3745 -3746 0
-3745 -3747 0
-3746 -3747 0
